Gurobi Optimizer version 9.1.2 build v9.1.2rc0 (linux64)
Thread count: 36 physical cores, 72 logical processors, using up to 32 threads
Optimize a model with 12 rows, 57 columns and 590 nonzeros
Model fingerprint: 0xf32eec78
Model has 47 quadratic constraints
Coefficient statistics:
  Matrix range     [2e-05, 3e+00]
  QMatrix range    [1e+00, 1e+00]
  QLMatrix range   [1e+00, 1e+00]
  Objective range  [8e-03, 7e-01]
  Bounds range     [1e+00, 1e+00]
  RHS range        [1e+00, 1e+00]
Presolve removed 9 rows and 0 columns

Continuous model is non-convex -- solving as a MIP.

Presolve removed 9 rows and 0 columns
Presolve time: 0.00s
Presolved: 189 rows, 57 columns, 443 nonzeros
Presolved model has 47 bilinear constraint(s)
Variable types: 57 continuous, 0 integer (0 binary)

Root relaxation: objective -1.743721e+00, 44 iterations, 0.00 seconds

    Nodes    |    Current Node    |     Objective Bounds      |     Work
 Expl Unexpl |  Obj  Depth IntInf | Incumbent    BestBd   Gap | It/Node Time

     0     0   -1.74372    0   38          -   -1.74372      -     -    0s
H    0     0                       0.6147548   -1.74372   384%     -    0s
     0     0   -1.64739    0    1    0.61475   -1.64739   368%     -    0s
H    0     0                      -1.6450460   -1.64739  0.14%     -    0s
     0     0     cutoff    0        -1.64505   -1.64505  0.00%     -    0s

Cutting planes:
  RLT: 25
  BQP: 3

Explored 1 nodes (76 simplex iterations) in 0.01 seconds
Thread count was 32 (of 72 available processors)

Solution count 2: -1.64505 0.614755 
No other solutions better than -1.64505

Optimal solution found (tolerance 1.00e-04)
Best objective -1.645045978473e+00, best bound -1.645045978473e+00, gap 0.0000%

User-callback calls 78, time in user-callback 0.00 sec
Gurobi Optimizer version 9.1.2 build v9.1.2rc0 (linux64)
Thread count: 36 physical cores, 72 logical processors, using up to 32 threads
Optimize a model with 24 rows, 120 columns and 2480 nonzeros
Model fingerprint: 0x4493f647
Model has 100 quadratic constraints
Coefficient statistics:
  Matrix range     [8e-06, 4e+00]
  QMatrix range    [1e+00, 1e+00]
  QLMatrix range   [1e+00, 1e+00]
  Objective range  [9e-03, 2e+00]
  Bounds range     [1e+00, 1e+00]
  RHS range        [1e+00, 1e+00]
Presolve removed 17 rows and 0 columns

Continuous model is non-convex -- solving as a MIP.

Presolve removed 17 rows and 0 columns
Presolve time: 0.00s
Presolved: 407 rows, 120 columns, 1232 nonzeros
Presolved model has 100 bilinear constraint(s)
Variable types: 120 continuous, 0 integer (0 binary)

Root relaxation: objective -1.260080e+01, 120 iterations, 0.00 seconds

    Nodes    |    Current Node    |     Objective Bounds      |     Work
 Expl Unexpl |  Obj  Depth IntInf | Incumbent    BestBd   Gap | It/Node Time

     0     0  -12.60080    0   84          -  -12.60080      -     -    0s
H    0     0                       1.4363037  -12.60080   977%     -    0s
     0     0   -8.90542    0  100    1.43630   -8.90542   720%     -    0s
     0     0   -8.89026    0  100    1.43630   -8.89026   719%     -    0s
     0     0   -7.74191    0   90    1.43630   -7.74191   639%     -    0s
H    0     0                      -0.2867851   -7.74191  2600%     -    0s
     0     0   -7.70270    0   90   -0.28679   -7.70270  2586%     -    0s
     0     0   -7.43700    0   90   -0.28679   -7.43700  2493%     -    0s
H    0     0                      -0.7681347   -7.43700   868%     -    0s
     0     0   -7.41498    0   90   -0.76813   -7.41498   865%     -    0s
     0     0   -7.35138    0   90   -0.76813   -7.35138   857%     -    0s
     0     0   -7.34405    0   90   -0.76813   -7.34405   856%     -    0s
     0     0   -7.32383    0   90   -0.76813   -7.32383   853%     -    0s
     0     0   -7.32233    0   90   -0.76813   -7.32233   853%     -    0s
     0     0   -7.31963    0   90   -0.76813   -7.31963   853%     -    0s
     0     0   -7.31809    0   90   -0.76813   -7.31809   853%     -    0s
     0     0   -7.31537    0   90   -0.76813   -7.31537   852%     -    0s
H    0     0                      -2.4317526   -7.31537   201%     -    0s
H    0     0                      -3.3140106   -7.31537   121%     -    0s
H    0     0                      -3.3434937   -7.31537   119%     -    0s
     0     2   -7.31537    0   90   -3.34349   -7.31537   119%     -    0s
*  912   958              29      -3.3511910   -6.41312  91.4%  29.7    0s
* 1360  1368              21      -5.2139136   -6.41312  23.0%  23.9    0s
* 1362  1368              21      -5.2139155   -6.41312  23.0%  23.9    0s
* 1972  1405              21      -5.2143353   -6.21276  19.1%  22.4    0s
* 2044  1405              29      -5.7519122   -6.21276  8.01%  22.5    0s
* 2301  1042              22      -5.7572749   -5.96613  3.63%  21.5    0s
* 2302  1042              22      -5.7572766   -5.96613  3.63%  21.5    0s
* 2605   633              19      -5.7575535   -5.90790  2.61%  19.4    0s
* 2606   633              19      -5.7575691   -5.90790  2.61%  19.4    0s
* 2660   633              14      -5.7674899   -5.88198  1.99%  19.1    0s
* 3148   681              29      -5.7964208   -5.86828  1.24%  16.4    0s
* 3233   681              19      -5.8490005   -5.86828  0.33%  16.2    0s
* 3810     0              16      -5.8490064   -5.84901  0.00%  14.7    0s

Cutting planes:
  RLT: 82
  BQP: 17
  PSD: 19

Explored 4398 nodes (56450 simplex iterations) in 0.79 seconds
Thread count was 32 (of 72 available processors)

Solution count 10: -5.84901 -5.79642 -5.76749 ... -3.35119
No other solutions better than -5.84901

Optimal solution found (tolerance 1.00e-04)
Best objective -5.849006392770e+00, best bound -5.849006392770e+00, gap 0.0000%

User-callback calls 9112, time in user-callback 0.00 sec



objective value: -5.849006392770232
objective bound: -5.849006392770232
x_opt: [0.0, 0.9999999999999999, 1.0, 1.0, 1.0, 0.0, -4.733558922435932e-17, 7.366476135681199e-17, 0.27949787421282374, 0.9999999999999997, 0.0, 0.22515607155294526, 1.0000000000000002, 1.0000000000000002, 0.9999999999999997, -5.743114992955671e-20, 0.0, 0.0, 0.05310076721330478, 0.49492078806579143]
GUROBI solution time: 0.7915151119232178




